
  32    1
  10

   0   0  12 2 3 4 5 6 7 8 9 11 18 19 31 
   4   3   7 24 20 17 15 13 12 10 
   8  10   5 28 22 16 15 14 
  10   8   4 29 16 14 12 
   8   9   5 27 24 23 14 13 
   1  10   5 30 28 22 21 17 
   3   1   4 28 26 22 15 
   2  10   3 28 23 14 
   5   7   3 27 22 14 
   5  10   4 29 28 27 22 
   8   8   3 27 24 23 
   7   7   3 28 27 22 
   8   8   3 28 26 25 
   6   7   2 25 21 
   1   8   2 27 23 
   8   6   2 27 25 
  10   5   2 27 25 
   5   8   2 27 26 
   4  10   2 27 26 
   3   6   1 21 
   2  10   1 26 
   1  10   1 25 
   5  10   1 25 
  10   7   1 26 
  10  10   1 32
   7  10   1 32
   7  10   1 32
   8   8   1 32
   7   7   1 32
   9  10   1 32
  10   7   1 32
   0   0   0 
